
630.0
630.0
630.0
630.0
630.0
630.0
630.0
630.0
690.0
630.0
870.0
630.0
630.0
630.0
630.0
630.0
630.0
630.0
630.0
630.0
630.0
630.0
630.0
630.0
630.0
630.0
630.0
630.0
630.0
630.0
630.0
630.0
630.0
630.0
630.0
660.0
630.0
630.0
630.0
630.0
630.0
630.0
630.0
630.0
630.0
630.0
870.0
630.0
630.0
630.0
630.0
630.0
630.0
630.0
630.0
630.0
1050.0
630.0
630.0
630.0
630.0
630.0
630.0
630.0
630.0
630.0
630.0
630.0
630.0
630.0
630.0
630.0
630.0
630.0
630.0
630.0
630.0
630.0
630.0
630.0